p cnf 33 47
-2 -1 0
1 2 0
-4 -1 0
-4 -3 0
1 3 4 0
-5 1 0
-1 5 0
-6 1 0
-6 3 0
-1 -3 6 0
-7 -3 0
3 7 0
8 0
-9 1 0
-1 9 0
-10 -1 0
1 10 0
-11 3 0
-3 11 0
-12 -3 0
3 12 0
13 0
14 0
15 0
-16 3 0
-3 16 0
-17 -3 0
3 17 0
18 0
19 0
20 0
21 0
22 0
23 0
-24 3 0
-3 24 0
-25 -3 0
3 25 0
26 0
27 0
28 0
29 0
30 0
31 0
32 0
33 0
2 4 -5 6 -7 -8 -9 10 11 -12 -13 -14 -15 16 -17 -18 -19 -20 -21 -22 -23 24 -25 -26 -27 -28 -29 -30 -31 -32 -33 0
w 1 0.700000
w 3 0.700000
w 2 -1.000000
w 4 -1.000000
w 5 -1.000000
w 6 -1.000000
w 7 -1.000000
w 8 -1.000000
w 9 -1.000000
w 10 -1.000000
w 11 -1.000000
w 12 -1.000000
w 13 -1.000000
w 14 -1.000000
w 15 -1.000000
w 16 -1.000000
w 17 -1.000000
w 18 -1.000000
w 19 -1.000000
w 20 -1.000000
w 21 -1.000000
w 22 -1.000000
w 23 -1.000000
w 24 -1.000000
w 25 -1.000000
w 26 -1.000000
w 27 -1.000000
w 28 -1.000000
w 29 -1.000000
w 30 -1.000000
w 31 -1.000000
w 32 -1.000000
w 33 -1.000000
